(set-info :smt-lib-version 2.6)
(set-logic QF_S)
(set-info :source |
Generated by: Hongjian Jiang, Oliver Markgraf, Daniel Stan, Anthony W. Lin, Philipp Ruemmer
Generated on: 2025-04-11
Application: Using String Solvers to solve RMC problems encoded as CHC over Strings
Target solver: cvc5, OSTRICH, Z3, Z3alpha, Z3-noodler
Time limit: 60.0
Benchmarks are extracted by running HornStr https://arg-git.informatik.uni-kl.de/pub/string-chc-lib on all benchmarks
provided in the repository and gathering the string queries sent to the string solvers.
|)
(set-info :license "https://creativecommons.org/licenses/by/4.0/")
(set-info :category "industrial")
(set-info :status unknown)
(declare-fun varout () String)
(assert (let ((a!1 (re.* (re.union (re.union (str.to_re "R") (str.to_re "T"))
                           (str.to_re "L")))))
  (str.in_re varout a!1)))
(declare-fun varin () String)
(assert (let ((a!1 (re.* (re.union (re.union (str.to_re "R") (str.to_re "T"))
                           (str.to_re "L")))))
  (str.in_re varin a!1)))
(declare-fun X () String)
(declare-fun reg0 () String)
(declare-fun Y () String)
(declare-fun isin () Bool)
(declare-fun isout () Bool)
(assert (let ((a!1 (str.in_re reg0 (re.* (re.union (str.to_re "T") (str.to_re "L"))))))
  (and true (= X reg0) (= Y reg0) a!1 (= X varin) isin (= Y varout) isout)))
(assert (let ((a!1 (re.++ (re.* (re.union (str.to_re "R") (str.to_re "L")))
                  (str.to_re "T"))))
(let ((a!2 (re.union (str.to_re "T")
                     (re.++ (re.union (str.to_re "R") (str.to_re "L")) a!1))))
(let ((a!3 (re.++ (re.* (re.union (str.to_re "R") (str.to_re "L"))) a!2)))
(let ((a!4 (re.union (str.to_re "T")
                     (re.++ (re.union (str.to_re "R") (str.to_re "L")) a!3))))
(let ((a!5 (re.++ (re.* a!4) (re.union (str.to_re "") (re.++ a!4 (re.* a!4))))))
  (str.in_re varin (re.++ a!3 a!5))))))))
(assert (let ((a!1 (re.++ (re.union (str.to_re "R") (str.to_re "L"))
                  (re.* (re.union (str.to_re "R") (str.to_re "L")))))
      (a!3 (re.++ (re.* (re.union (str.to_re "R") (str.to_re "L")))
                  (str.to_re "T"))))
(let ((a!2 (re.++ (re.* (re.union (str.to_re "R") (str.to_re "L")))
                  (re.union (str.to_re "") a!1)))
      (a!4 (re.union (str.to_re "T")
                     (re.++ (re.union (str.to_re "R") (str.to_re "L")) a!3))))
(let ((a!5 (re.++ (re.* (re.union (str.to_re "R") (str.to_re "L"))) a!4)))
(let ((a!6 (re.union (str.to_re "T")
                     (re.++ (re.union (str.to_re "R") (str.to_re "L")) a!5))))
(let ((a!7 (re.++ (re.* a!6)
                  (re.++ (re.union (str.to_re "R") (str.to_re "L")) a!2))))
(let ((a!8 (re.union (re.++ (re.union (str.to_re "R") (str.to_re "L")) a!2)
                     (re.++ a!6 a!7))))
(let ((a!9 (re.union a!2 (re.++ a!5 (re.++ (re.* a!6) a!8)))))
  (str.in_re varout a!9)))))))))
(check-sat)
(exit)
